
n_res = 6;
rcap = [31, 34, 581, 574, 581, 591];
rtype = [1, 1, 2, 2, 2, 2];
n_tasks = 100;
modes =  [{1, 2, 3}, {4, 5, 6}, {7, 8, 9}, {10, 11, 12}, {13, 14, 15}, {16, 17, 18}, {19, 20, 21}, {22, 23, 24}, {25, 26, 27}, {28, 29, 30}, {31, 32, 33}, {34, 35, 36}, {37, 38, 39}, {40, 41, 42}, {43, 44, 45}, {46, 47, 48}, {49, 50, 51}, {52, 53, 54}, {55, 56, 57}, {58, 59, 60}, {61, 62, 63}, {64, 65, 66}, {67, 68, 69}, {70, 71, 72}, {73, 74, 75}, {76, 77, 78}, {79, 80, 81}, {82, 83, 84}, {85, 86, 87}, {88, 89, 90}, {91, 92, 93}, {94, 95, 96}, {97, 98, 99}, {100, 101, 102}, {103, 104, 105}, {106, 107, 108}, {109, 110, 111}, {112, 113, 114}, {115, 116, 117}, {118, 119, 120}, {121, 122, 123}, {124, 125, 126}, {127, 128, 129}, {130, 131, 132}, {133, 134, 135}, {136, 137, 138}, {139, 140, 141}, {142, 143, 144}, {145, 146, 147}, {148, 149, 150}, {151, 152, 153}, {154, 155, 156}, {157, 158, 159}, {160, 161, 162}, {163, 164, 165}, {166, 167, 168}, {169, 170, 171}, {172, 173, 174}, {175, 176, 177}, {178, 179, 180}, {181, 182, 183}, {184, 185, 186}, {187, 188, 189}, {190, 191, 192}, {193, 194, 195}, {196, 197, 198}, {199, 200, 201}, {202, 203, 204}, {205, 206, 207}, {208, 209, 210}, {211, 212, 213}, {214, 215, 216}, {217, 218, 219}, {220, 221, 222}, {223, 224, 225}, {226, 227, 228}, {229, 230, 231}, {232, 233, 234}, {235, 236, 237}, {238, 239, 240}, {241, 242, 243}, {244, 245, 246}, {247, 248, 249}, {250, 251, 252}, {253, 254, 255}, {256, 257, 258}, {259, 260, 261}, {262, 263, 264}, {265, 266, 267}, {268, 269, 270}, {271, 272, 273}, {274, 275, 276}, {277, 278, 279}, {280, 281, 282}, {283, 284, 285}, {286, 287, 288}, {289, 290, 291}, {292, 293, 294}, {295, 296, 297}, {298, 299, 300}];
succ =  [{45, 38, 12, 7, 6}, {51, 44, 36, 33, 19, 5}, {45, 40, 38, 34, 33, 32, 29, 28, 26, 23, 10}, {55, 51, 38, 33, 32, 31, 30, 28, 19, 15, 10}, {45, 38, 32, 31, 30, 28, 15, 10}, {51, 43, 40, 39, 36, 33, 30, 28, 27, 24, 18}, {55, 48, 43, 33, 31, 29, 28, 27, 24, 22, 19}, {55, 51, 48, 46, 45, 43, 36, 31, 30, 29, 19}, {68, 67, 54, 51, 50, 49, 48, 46, 45, 43, 39, 37, 35, 30}, {50, 48, 43, 41, 39, 27, 24, 22}, {54, 51, 46, 39, 37, 31, 30, 28}, {72, 68, 60, 57, 55, 51, 48, 46, 43, 42, 41, 40, 37, 31}, {72, 60, 57, 55, 50, 48, 46, 45, 43, 41, 37, 33, 31}, {72, 50, 41, 40, 36, 31, 24, 22}, {68, 67, 58, 57, 54, 49, 48, 47, 46, 43, 42, 41, 40, 37}, {72, 67, 58, 54, 50, 46, 41, 24}, {68, 56, 54, 50, 45, 41, 22}, {68, 55, 53, 44, 31, 22}, {72, 68, 66, 63, 60, 58, 57, 56, 54, 50, 49, 41, 40, 37}, {72, 60, 56, 42, 37, 35, 31}, {72, 68, 67, 66, 63, 58, 56, 55, 52, 51, 49, 47, 46, 41, 40}, {67, 66, 63, 60, 59, 58, 57, 49, 47, 46, 37}, {85, 77, 68, 67, 57, 56, 53, 50, 49, 42, 37}, {68, 60, 59, 56, 53, 49, 47, 42, 37}, {100, 86, 69, 68, 61, 57, 56, 53, 52, 50, 47, 42, 40}, {68, 61, 60, 53, 31}, {76, 67, 66, 63, 59, 58, 54, 47, 37}, {76, 68, 63, 62, 56, 52, 35}, {86, 61, 60, 57, 56, 54, 52, 50, 47, 41}, {100, 86, 85, 82, 77, 75, 71, 69, 62, 60, 57, 56, 52, 42}, {100, 69, 67, 66, 64, 63, 59, 58, 52, 49, 47}, {85, 67, 63, 60, 56, 37}, {82, 69, 62, 61, 59, 52, 47, 42}, {77, 66, 46, 37}, {86, 64, 58, 47, 41}, {100, 98, 85, 73, 69, 68, 65, 64, 63, 62, 59, 49}, {100, 98, 86, 84, 82, 75, 73, 71, 69, 64, 62, 61, 52}, {98, 96, 85, 80, 77, 75, 69, 65, 61, 58, 56, 50}, {100, 86, 84, 83, 73, 72, 71, 69, 63, 62, 61, 56}, {99, 98, 94, 92, 85, 84, 83, 82, 77, 76, 75, 74, 73, 71, 70, 64, 59}, {100, 99, 98, 97, 71, 70, 69, 59, 53}, {99, 98, 84, 80, 79, 76, 73, 70, 66, 64, 63}, {98, 96, 94, 83, 80, 76, 73, 71, 69, 56}, {97, 95, 94, 93, 92, 91, 85, 84, 81, 80, 79, 76, 75, 65}, {98, 94, 90, 86, 85, 82, 81, 79, 78, 77, 71, 70, 63}, {98, 95, 94, 92, 86, 82, 80, 78, 76, 70, 61}, {99, 98, 94, 93, 92, 90, 85, 84, 80, 79, 77, 74, 73, 71}, {100, 98, 94, 92, 84, 82, 79, 78, 71, 69}, {99, 96, 93, 92, 86, 80, 79, 78, 76, 71}, {94, 93, 92, 90, 84, 79, 74, 73, 71, 70}, {96, 92, 85, 82, 81, 80, 78, 75, 74, 70}, {96, 95, 94, 92, 89, 80, 79, 65}, {96, 94, 92, 83, 82, 81, 78, 75, 74}, {92, 90, 74, 71, 64}, {98, 97, 94, 92, 91, 90, 89, 79, 74}, {97, 93, 81, 79, 78, 74, 70}, {98, 97, 96, 93, 90, 88, 80, 78}, {92, 90, 82, 74, 70}, {91, 90, 89, 88, 80, 79, 78}, {97, 96, 95, 94, 93, 92, 79}, {99, 93, 81, 79, 74}, {94, 93, 74, 70}, {96, 92, 91, 89, 74}, {97, 93, 88, 87, 81}, {90, 83, 78, 74}, {95, 94, 92, 74}, {99, 94, 89, 88, 87}, {91, 88, 82, 80}, {93, 90, 74}, {91, 89, 88, 87}, {95, 91, 89, 88}, {93, 91, 80}, {88, 78}, {88, 87}, {90, 89}, {90, 89}, {88, 87}, {87}, {87}, {87}, {89}, {87}, {87}, {89}, {89}, {87}, {}, {}, {}, {}, {}, {}, {}, {}, {}, {}, {}, {}, {}, {}];
n_opt = 300;
dur = [1, 7, 10, 1, 3, 6, 3, 7, 10, 1, 2, 7, 3, 5, 9, 8, 9, 10, 1, 7, 10, 2, 3, 4, 5, 9, 10, 8, 9, 10, 2, 3, 4, 3, 5, 9, 2, 3, 7, 5, 7, 10, 1, 7, 10, 2, 4, 6, 1, 2, 8, 1, 2, 6, 1, 5, 10, 4, 5, 9, 3, 8, 9, 1, 7, 8, 3, 4, 8, 4, 9, 10, 3, 5, 6, 1, 2, 3, 3, 5, 10, 1, 4, 6, 1, 2, 10, 1, 7, 8, 2, 4, 7, 1, 2, 10, 1, 2, 3, 3, 5, 6, 3, 9, 10, 3, 6, 9, 5, 6, 10, 2, 3, 6, 6, 7, 8, 1, 4, 6, 4, 9, 10, 8, 9, 10, 2, 5, 10, 5, 7, 8, 3, 8, 9, 2, 5, 6, 4, 5, 8, 5, 7, 10, 3, 4, 9, 1, 2, 6, 3, 8, 9, 4, 7, 8, 2, 3, 6, 2, 3, 10, 5, 6, 8, 6, 7, 8, 2, 3, 8, 1, 4, 5, 2, 6, 9, 2, 4, 7, 4, 5, 7, 4, 8, 10, 1, 3, 5, 3, 4, 9, 1, 9, 10, 4, 7, 8, 1, 2, 7, 5, 6, 7, 5, 7, 9, 1, 6, 7, 4, 5, 6, 2, 4, 5, 3, 4, 9, 3, 8, 9, 3, 5, 9, 1, 4, 7, 1, 4, 8, 2, 6, 9, 1, 4, 8, 1, 4, 10, 2, 7, 10, 1, 8, 10, 5, 6, 9, 8, 9, 10, 4, 7, 10, 2, 5, 6, 2, 7, 9, 2, 4, 8, 5, 7, 8, 3, 4, 5, 3, 6, 9, 2, 5, 8, 4, 5, 7, 7, 8, 9, 4, 5, 10, 2, 7, 10, 2, 5, 6, 3, 7, 10, 2, 4, 10, 4, 8, 9];
rreq = [|7, 7, 7, 8, 7, 5, 8, 4, 4, 7, 5, 4, 7, 6, 6, 4, 4, 3, 10, 8, 7, 5, 5, 5, 6, 5, 4, 6, 4, 3, 8, 7, 7, 4, 3, 2, 8, 7, 7, 5, 4, 4, 3, 3, 2, 6, 5, 5, 9, 7, 5, 9, 6, 3, 6, 6, 6, 6, 4, 2, 3, 2, 2, 7, 7, 5, 6, 4, 2, 8, 3, 3, 7, 6, 6, 9, 7, 7, 5, 4, 2, 9, 9, 9, 7, 6, 5, 3, 3, 3, 4, 2, 1, 5, 3, 3, 9, 9, 9, 8, 8, 6, 7, 5, 4, 7, 5, 2, 8, 7, 7, 5, 5, 4, 9, 9, 9, 5, 3, 3, 9, 6, 6, 6, 4, 3, 8, 6, 5, 6, 4, 3, 7, 5, 3, 7, 6, 6, 5, 4, 4, 6, 5, 5, 10, 10, 10, 4, 4, 4, 7, 7, 7, 10, 8, 4, 6, 5, 5, 8, 5, 5, 9, 6, 1, 4, 3, 2, 7, 6, 4, 9, 9, 9, 6, 6, 4, 9, 8, 8, 4, 4, 4, 7, 5, 5, 9, 9, 9, 9, 9, 9, 5, 3, 3, 4, 3, 2, 9, 7, 6, 2, 2, 1, 8, 5, 2, 5, 5, 4, 6, 6, 5, 7, 6, 2, 7, 6, 4, 7, 4, 3, 4, 3, 1, 8, 6, 4, 5, 4, 4, 9, 9, 9, 1, 1, 1, 5, 2, 2, 4, 3, 3, 7, 7, 4, 2, 1, 1, 2, 1, 1, 3, 3, 1, 9, 7, 5, 3, 1, 1, 6, 5, 5, 3, 3, 3, 4, 4, 4, 9, 9, 8, 9, 6, 6, 8, 6, 6, 7, 3, 3, 3, 3, 3, 1, 1, 1, 6, 6, 6, 5, 3, 3, 9, 9, 9, 9, 8, 7
 |9, 9, 9, 7, 4, 3, 3, 3, 3, 6, 6, 5, 7, 6, 4, 6, 4, 4, 9, 8, 8, 8, 8, 7, 7, 7, 1, 8, 6, 5, 5, 5, 5, 9, 9, 9, 6, 4, 4, 6, 6, 5, 9, 9, 9, 10, 8, 8, 9, 9, 9, 10, 10, 10, 5, 3, 3, 9, 8, 8, 6, 3, 2, 7, 4, 3, 6, 6, 5, 5, 3, 3, 8, 5, 3, 10, 9, 9, 8, 6, 4, 2, 1, 1, 9, 7, 6, 7, 6, 6, 7, 5, 3, 1, 1, 1, 6, 4, 4, 9, 8, 7, 4, 4, 4, 10, 10, 10, 4, 2, 2, 6, 4, 1, 9, 6, 5, 7, 7, 2, 7, 5, 5, 8, 5, 5, 4, 3, 3, 9, 9, 9, 7, 6, 4, 6, 5, 3, 9, 9, 7, 5, 4, 4, 7, 5, 1, 5, 5, 5, 8, 7, 6, 8, 5, 5, 7, 7, 6, 6, 5, 4, 8, 7, 5, 5, 3, 3, 4, 3, 2, 5, 4, 3, 8, 6, 4, 9, 8, 8, 4, 2, 1, 8, 6, 5, 6, 3, 1, 7, 6, 5, 6, 4, 3, 5, 5, 5, 9, 7, 7, 9, 5, 4, 7, 7, 4, 7, 5, 2, 4, 3, 3, 9, 8, 8, 5, 5, 5, 7, 5, 5, 5, 5, 5, 9, 8, 5, 5, 3, 3, 10, 7, 7, 7, 5, 3, 6, 4, 3, 3, 3, 3, 7, 7, 7, 6, 5, 2, 8, 5, 4, 9, 8, 7, 3, 3, 3, 9, 7, 6, 6, 5, 5, 9, 9, 8, 10, 4, 3, 9, 7, 6, 3, 3, 3, 2, 1, 1, 8, 7, 6, 5, 5, 5, 7, 7, 6, 4, 2, 2, 6, 5, 5, 6, 5, 3, 7, 5, 1
 |9, 9, 9, 3, 3, 2, 8, 6, 3, 2, 1, 1, 4, 3, 3, 10, 9, 9, 1, 1, 1, 8, 7, 5, 5, 5, 5, 8, 8, 8, 6, 5, 4, 8, 6, 6, 4, 4, 3, 3, 3, 2, 5, 5, 4, 7, 5, 3, 2, 1, 1, 5, 3, 3, 9, 9, 9, 4, 3, 3, 9, 7, 5, 9, 9, 9, 3, 3, 3, 5, 3, 2, 9, 7, 6, 6, 3, 1, 10, 7, 5, 4, 4, 3, 4, 2, 1, 10, 10, 10, 6, 5, 3, 6, 4, 3, 10, 6, 3, 7, 5, 3, 8, 8, 6, 9, 8, 7, 10, 7, 5, 10, 7, 5, 6, 5, 2, 8, 5, 1, 6, 6, 6, 6, 4, 2, 6, 5, 4, 10, 9, 8, 2, 2, 2, 3, 2, 2, 10, 9, 9, 3, 3, 2, 9, 6, 6, 7, 6, 5, 8, 8, 8, 7, 7, 5, 6, 5, 4, 9, 6, 6, 7, 5, 3, 9, 7, 4, 3, 3, 2, 7, 6, 5, 6, 6, 6, 8, 5, 2, 6, 3, 3, 2, 2, 2, 10, 10, 10, 9, 9, 9, 9, 9, 7, 7, 5, 5, 5, 4, 1, 10, 7, 7, 2, 1, 1, 6, 6, 6, 8, 8, 5, 3, 1, 1, 6, 4, 3, 7, 6, 3, 3, 2, 1, 5, 5, 5, 4, 4, 4, 2, 2, 2, 5, 5, 5, 6, 5, 1, 5, 4, 4, 9, 7, 4, 7, 7, 7, 7, 3, 1, 9, 8, 8, 1, 1, 1, 6, 5, 4, 1, 1, 1, 3, 3, 3, 9, 9, 9, 5, 4, 4, 8, 8, 8, 8, 7, 7, 8, 8, 7, 8, 7, 6, 7, 5, 4, 3, 3, 3, 8, 6, 5, 7, 5, 3, 6, 3, 1
 |7, 5, 2, 6, 6, 4, 5, 4, 4, 6, 6, 6, 10, 8, 8, 4, 4, 2, 4, 3, 3, 4, 4, 4, 4, 3, 1, 5, 4, 3, 8, 8, 5, 8, 6, 4, 4, 4, 4, 5, 3, 3, 7, 4, 3, 6, 5, 2, 8, 5, 4, 4, 4, 4, 8, 8, 7, 4, 3, 2, 3, 3, 3, 3, 3, 3, 10, 7, 5, 6, 5, 5, 9, 7, 4, 7, 3, 3, 8, 7, 6, 6, 5, 4, 4, 3, 3, 9, 9, 9, 2, 2, 2, 8, 7, 7, 6, 6, 5, 10, 10, 10, 5, 5, 4, 10, 10, 10, 4, 4, 3, 6, 4, 1, 3, 2, 1, 2, 2, 2, 8, 8, 6, 4, 3, 3, 7, 7, 7, 4, 3, 3, 9, 9, 9, 6, 4, 4, 5, 4, 4, 7, 4, 1, 8, 6, 6, 6, 5, 5, 5, 3, 3, 8, 8, 8, 8, 7, 4, 6, 3, 3, 7, 4, 1, 5, 4, 4, 7, 6, 6, 8, 7, 6, 8, 7, 6, 3, 2, 2, 8, 8, 8, 9, 7, 7, 8, 5, 4, 6, 5, 3, 8, 8, 8, 8, 5, 5, 8, 8, 8, 2, 1, 1, 3, 3, 3, 8, 8, 7, 2, 1, 1, 10, 7, 5, 4, 2, 1, 5, 4, 4, 7, 5, 2, 2, 2, 2, 10, 9, 8, 7, 5, 3, 6, 5, 4, 4, 3, 3, 2, 1, 1, 4, 4, 4, 8, 7, 6, 10, 9, 9, 4, 3, 3, 2, 1, 1, 7, 6, 5, 4, 2, 2, 7, 7, 5, 5, 5, 5, 10, 8, 8, 10, 6, 3, 5, 5, 5, 7, 6, 5, 9, 8, 8, 9, 9, 8, 5, 4, 4, 6, 5, 3, 4, 3, 3, 10, 8, 7
 |2, 2, 2, 6, 5, 1, 5, 4, 4, 8, 7, 6, 5, 5, 5, 3, 1, 1, 6, 5, 5, 7, 4, 2, 4, 3, 1, 6, 3, 3, 4, 4, 3, 4, 2, 2, 10, 4, 1, 10, 9, 8, 7, 6, 6, 6, 6, 5, 4, 4, 2, 4, 3, 2, 7, 5, 5, 8, 7, 6, 6, 5, 3, 9, 8, 7, 10, 10, 10, 5, 4, 2, 10, 7, 4, 6, 4, 4, 6, 6, 6, 9, 9, 9, 9, 6, 4, 10, 8, 5, 6, 5, 3, 6, 6, 3, 8, 5, 4, 3, 3, 3, 9, 9, 9, 4, 3, 2, 5, 4, 4, 4, 2, 2, 9, 6, 4, 9, 9, 9, 7, 6, 3, 8, 7, 6, 7, 6, 5, 7, 5, 4, 3, 3, 1, 9, 9, 9, 9, 6, 4, 5, 3, 1, 8, 5, 1, 1, 1, 1, 2, 2, 2, 2, 2, 2, 10, 8, 7, 2, 2, 2, 6, 4, 3, 6, 5, 4, 10, 7, 3, 9, 6, 6, 8, 8, 8, 4, 4, 4, 6, 5, 4, 8, 7, 6, 9, 8, 7, 8, 5, 1, 8, 8, 7, 3, 3, 3, 9, 9, 9, 6, 4, 4, 5, 4, 2, 6, 5, 5, 8, 8, 7, 5, 5, 5, 4, 4, 4, 5, 5, 4, 8, 6, 6, 6, 6, 6, 5, 4, 1, 6, 6, 4, 6, 4, 4, 9, 8, 5, 7, 5, 3, 10, 9, 8, 8, 7, 6, 9, 8, 7, 4, 2, 2, 3, 3, 3, 7, 4, 1, 2, 2, 2, 4, 3, 3, 9, 7, 6, 8, 6, 4, 5, 4, 2, 3, 3, 3, 4, 4, 4, 6, 5, 4, 7, 7, 7, 7, 5, 5, 6, 5, 5, 6, 6, 6, 7, 5, 5
 |8, 8, 8, 8, 6, 6, 5, 3, 3, 6, 4, 3, 9, 7, 3, 7, 7, 5, 6, 2, 2, 5, 3, 2, 8, 8, 8, 7, 4, 3, 5, 4, 3, 10, 8, 5, 9, 8, 5, 4, 2, 1, 6, 4, 3, 6, 6, 4, 6, 6, 5, 5, 5, 4, 5, 3, 2, 6, 4, 3, 5, 4, 3, 7, 7, 7, 6, 5, 3, 8, 7, 5, 2, 2, 2, 5, 4, 4, 3, 3, 2, 7, 7, 6, 9, 6, 6, 8, 8, 8, 7, 6, 5, 9, 6, 5, 8, 7, 5, 4, 2, 1, 6, 4, 4, 6, 4, 4, 10, 9, 8, 6, 3, 2, 7, 5, 1, 7, 6, 4, 10, 6, 2, 4, 4, 4, 1, 1, 1, 7, 6, 4, 8, 5, 3, 7, 6, 6, 5, 5, 5, 8, 8, 8, 6, 4, 4, 5, 3, 2, 8, 6, 6, 7, 7, 5, 7, 4, 3, 4, 4, 4, 10, 9, 8, 10, 8, 7, 2, 1, 1, 8, 6, 4, 5, 4, 4, 7, 6, 5, 8, 7, 4, 8, 8, 8, 9, 9, 9, 1, 1, 1, 9, 7, 5, 5, 5, 3, 4, 4, 3, 6, 4, 4, 8, 8, 8, 2, 2, 2, 6, 6, 6, 6, 6, 4, 9, 7, 6, 3, 3, 3, 9, 8, 7, 7, 5, 4, 5, 3, 2, 9, 7, 7, 8, 4, 2, 10, 4, 1, 5, 4, 3, 4, 4, 4, 6, 5, 5, 7, 4, 4, 8, 7, 6, 6, 4, 4, 9, 8, 8, 6, 6, 2, 2, 2, 2, 7, 5, 3, 9, 5, 2, 7, 4, 2, 5, 2, 1, 9, 5, 2, 9, 7, 7, 6, 4, 4, 3, 3, 2, 4, 4, 4, 8, 8, 8, 7, 6, 4|];